NAME: Taillard-150B
BEST_KNOWN: 2727.20
COMMENT: 2727.200000
DIMENSION: 151
CAPACITY: 1918
EDGE_WEIGHT_FORMAT: FUNCTION
EDGE_WEIGHT_TYPE: EXACT_2D
NODE_COORD_SECTION
1 0.00000 0.00000
2 58.00000 -75.00000
3 80.00000 -76.00000
4 79.00000 -80.00000
5 64.00000 -66.00000
6 61.00000 -65.00000
7 73.00000 -71.00000
8 63.00000 -76.00000
9 57.00000 -69.00000
10 64.00000 -76.00000
11 64.00000 -81.00000
12 78.00000 -69.00000
13 20.00000 2.00000
14 14.00000 0.00000
15 7.00000 -9.00000
16 9.00000 18.00000
17 17.00000 -5.00000
18 14.00000 -6.00000
19 20.00000 8.00000
20 20.00000 15.00000
21 9.00000 6.00000
22 19.00000 12.00000
23 8.00000 -2.00000
24 9.00000 15.00000
25 24.00000 5.00000
26 14.00000 16.00000
27 -2.00000 0.00000
28 20.00000 11.00000
29 7.00000 -2.00000
30 -101.00000 -25.00000
31 -94.00000 -26.00000
32 -99.00000 -22.00000
33 -112.00000 -20.00000
34 -95.00000 -19.00000
35 -112.00000 -27.00000
36 -102.00000 -15.00000
37 -96.00000 -13.00000
38 -110.00000 -17.00000
39 -101.00000 -15.00000
40 -105.00000 -10.00000
41 -106.00000 -26.00000
42 -109.00000 -26.00000
43 -102.00000 -26.00000
44 -101.00000 -14.00000
45 -99.00000 -12.00000
46 -94.00000 -24.00000
47 -96.00000 -13.00000
48 -100.00000 -16.00000
49 -111.00000 -12.00000
50 -109.00000 -12.00000
51 -66.00000 -12.00000
52 -48.00000 -27.00000
53 -59.00000 3.00000
54 -47.00000 -4.00000
55 -62.00000 -10.00000
56 -72.00000 -11.00000
57 -59.00000 -1.00000
58 -73.00000 -6.00000
59 -62.00000 -3.00000
60 -72.00000 -17.00000
61 -67.00000 -11.00000
62 -69.00000 -25.00000
63 -56.00000 1.00000
64 -66.00000 -6.00000
65 -72.00000 -7.00000
66 -46.00000 -15.00000
67 -45.00000 -18.00000
68 -51.00000 -21.00000
69 -73.00000 -18.00000
70 -61.00000 -15.00000
71 -57.00000 60.00000
72 -46.00000 74.00000
73 -57.00000 67.00000
74 -49.00000 72.00000
75 46.00000 101.00000
76 50.00000 113.00000
77 54.00000 103.00000
78 -80.00000 28.00000
79 -81.00000 35.00000
80 -85.00000 31.00000
81 -81.00000 29.00000
82 -76.00000 28.00000
83 -8.00000 -53.00000
84 -11.00000 -55.00000
85 -12.00000 -48.00000
86 -10.00000 -57.00000
87 -8.00000 -49.00000
88 -5.00000 -61.00000
89 -14.00000 -57.00000
90 106.00000 6.00000
91 96.00000 6.00000
92 92.00000 23.00000
93 102.00000 13.00000
94 90.00000 24.00000
95 94.00000 6.00000
96 107.00000 5.00000
97 106.00000 -1.00000
98 102.00000 16.00000
99 90.00000 8.00000
100 113.00000 -1.00000
101 88.00000 15.00000
102 87.00000 21.00000
103 100.00000 2.00000
104 108.00000 16.00000
105 114.00000 18.00000
106 99.00000 11.00000
107 87.00000 4.00000
108 110.00000 16.00000
109 102.00000 25.00000
110 -8.00000 108.00000
111 -9.00000 102.00000
112 -10.00000 108.00000
113 -4.00000 108.00000
114 -8.00000 104.00000
115 -9.00000 100.00000
116 -7.00000 111.00000
117 -4.00000 102.00000
118 -12.00000 101.00000
119 -14.00000 112.00000
120 -10.00000 105.00000
121 15.00000 -4.00000
122 30.00000 -7.00000
123 31.00000 8.00000
124 15.00000 1.00000
125 17.00000 7.00000
126 19.00000 -8.00000
127 19.00000 -9.00000
128 14.00000 -2.00000
129 21.00000 -7.00000
130 24.00000 -10.00000
131 26.00000 10.00000
132 20.00000 -6.00000
133 23.00000 3.00000
134 27.00000 -5.00000
135 25.00000 3.00000
136 27.00000 -2.00000
137 17.00000 -4.00000
138 31.00000 -10.00000
139 22.00000 2.00000
140 28.00000 -3.00000
141 -5.00000 13.00000
142 1.00000 18.00000
143 2.00000 -2.00000
144 -9.00000 10.00000
145 5.00000 -4.00000
146 -1.00000 1.00000
147 -11.00000 19.00000
148 -12.00000 3.00000
149 -3.00000 -3.00000
150 -18.00000 4.00000
151 -21.00000 1.00000
DEMAND_SECTION
1 0
2 50
3 50
4 170
5 297
6 9
7 630
8 179
9 179
10 216
11 4
12 9
13 154
14 117
15 63
16 436
17 905
18 14
19 3
20 10
21 166
22 211
23 8
24 25
25 139
26 213
27 758
28 429
29 5
30 136
31 501
32 93
33 21
34 169
35 22
36 3
37 271
38 433
39 3
40 1079
41 233
42 11
43 10
44 78
45 63
46 4
47 59
48 8
49 34
50 234
51 30
52 40
53 123
54 7
55 33
56 369
57 11
58 23
59 208
60 4
61 8
62 36
63 504
64 16
65 574
66 19
67 235
68 445
69 6
70 43
71 210
72 268
73 410
74 124
75 11
76 1085
77 5
78 529
79 107
80 274
81 23
82 156
83 32
84 177
85 16
86 8
87 19
88 52
89 47
90 4
91 372
92 525
93 101
94 898
95 40
96 32
97 1017
98 103
99 109
100 76
101 1025
102 53
103 22
104 991
105 4
106 147
107 49
108 276
109 7
110 78
111 389
112 4
113 388
114 135
115 233
116 74
117 51
118 4
119 216
120 85
121 37
122 6
123 12
124 12
125 45
126 3
127 122
128 46
129 132
130 464
131 11
132 11
133 16
134 119
135 60
136 14
137 13
138 90
139 5
140 458
141 6
142 3
143 99
144 73
145 13
146 10
147 9
148 417
149 150
150 49
151 271
DEPOT_SECTION
1
-1
EOF
